NAME 
ROWS
 N  OBJ
 L  R0      
 L  R1      
 L  R2      
 E  R3      
 E  R4      
 E  R5      
 E  R6      
 E  R7      
 E  R8      
 E  R9      
 E  R10     
 E  R11     
 E  R12     
 E  R13     
 E  R14     
 E  R15     
 E  R16     
 E  R17     
 E  R18     
 E  R19     
 E  R20     
 E  R21     
 E  R22     
 E  R23     
 E  R24     
 E  R25     
 E  R26     
 E  R27     
COLUMNS
    MARKER    'MARKER'                 'INTORG'
    I0(9)     OBJ       53
    I0(9)     R0        -35
    I0(9)     R1        51
    I0(9)     R2        119
    I0(9)     R4        12
    I0(9)     R5        11
    I0(9)     R9        5
    I0(9)     R12       5
    I0(9)     R13       8
    I0(9)     R27       1
    I1(10)    OBJ       -19
    I1(10)    R1        -198
    I1(10)    R2        54
    I1(10)    R4        17
    I1(10)    R5        18
    I1(10)    R6        7
    I1(10)    R8        4
    I1(10)    R10       7
    I1(10)    R13       9
    I1(10)    R14       1
    I1(10)    R27       1
    I2(11)    OBJ       -34
    I2(11)    R0        89
    I2(11)    R1        -78
    I2(11)    R2        28
    I2(11)    R3        12
    I2(11)    R5        15
    I2(11)    R7        13
    I2(11)    R10       16
    I2(11)    R11       18
    I2(11)    R12       10
    I2(11)    R13       9
    I2(11)    R27       1
    I3(8)     OBJ       -158
    I3(8)     R0        42
    I3(8)     R1        -107
    I3(8)     R2        176
    I3(8)     R6        9
    I3(8)     R9        11
    I3(8)     R12       16
    I3(8)     R14       4
    I3(8)     R27       1
    I4(11)    OBJ       56
    I4(11)    R0        -118
    I4(11)    R1        -40
    I4(11)    R2        66
    I4(11)    R6        2
    I4(11)    R7        3
    I4(11)    R8        19
    I4(11)    R9        19
    I4(11)    R10       18
    I4(11)    R11       1
    I4(11)    R12       1
    I4(11)    R27       1
    I5(12)    OBJ       19
    I5(12)    R0        -61
    I5(12)    R1        187
    I5(12)    R2        -126
    I5(12)    R4        14
    I5(12)    R5        13
    I5(12)    R7        6
    I5(12)    R8        2
    I5(12)    R11       1
    I5(12)    R12       7
    I5(12)    R13       1
    I5(12)    R14       16
    I5(12)    R27       1
    I6(8)     OBJ       159
    I6(8)     R0        68
    I6(8)     R1        71
    I6(8)     R2        115
    I6(8)     R5        10
    I6(8)     R6        14
    I6(8)     R10       17
    I6(8)     R14       12
    I6(8)     R27       1
    I7(13)    OBJ       -200
    I7(13)    R0        -150
    I7(13)    R1        199
    I7(13)    R2        188
    I7(13)    R3        7
    I7(13)    R5        5
    I7(13)    R6        18
    I7(13)    R7        17
    I7(13)    R8        4
    I7(13)    R10       8
    I7(13)    R11       11
    I7(13)    R13       13
    I7(13)    R14       6
    I7(13)    R27       1
    I8(7)     OBJ       7
    I8(7)     R0        29
    I8(7)     R1        -63
    I8(7)     R2        -13
    I8(7)     R4        11
    I8(7)     R10       4
    I8(7)     R14       19
    I8(7)     R27       1
    I9(10)    OBJ       154
    I9(10)    R0        -160
    I9(10)    R1        175
    I9(10)    R2        158
    I9(10)    R5        -1
    I9(10)    R6        11
    I9(10)    R7        8
    I9(10)    R8        14
    I9(10)    R9        -1
    I9(10)    R11       13
    I9(10)    R27       1
    I10(10)   OBJ       -144
    I10(10)   R0        147
    I10(10)   R1        24
    I10(10)   R2        -132
    I10(10)   R3        12
    I10(10)   R5        2
    I10(10)   R6        6
    I10(10)   R8        13
    I10(10)   R11       17
    I10(10)   R12       7
    I10(10)   R27       1
    I11(9)    OBJ       -138
    I11(9)    R0        -199
    I11(9)    R1        -132
    I11(9)    R2        -96
    I11(9)    R4        19
    I11(9)    R7        12
    I11(9)    R9        5
    I11(9)    R12       14
    I11(9)    R13       6
    I11(9)    R27       1
    MARKER    'MARKER'                 'INTEND'
    C12(14)   OBJ       -7
    C12(14)   R0        -1
    C12(14)   R1        -5
    C12(14)   R2        -6
    C12(14)   R3        10
    C12(14)   R12       5
    C12(14)   R13       19
    C12(14)   R14       6
    C12(14)   R16       15
    C12(14)   R18       7
    C12(14)   R19       4
    C12(14)   R20       5
    C12(14)   R22       14
    C12(14)   R23       5
    C12(14)   R26       3
    C13(14)   OBJ       4
    C13(14)   R1        1
    C13(14)   R2        -2
    C13(14)   R3        13
    C13(14)   R5        11
    C13(14)   R8        3
    C13(14)   R11       -1
    C13(14)   R13       17
    C13(14)   R14       6
    C13(14)   R16       4
    C13(14)   R17       9
    C13(14)   R19       7
    C13(14)   R21       5
    C13(14)   R24       16
    C13(14)   R26       6
    C14(15)   OBJ       5
    C14(15)   R0        -3
    C14(15)   R1        -8
    C14(15)   R2        -3
    C14(15)   R4        1
    C14(15)   R5        4
    C14(15)   R6        3
    C14(15)   R8        3
    C14(15)   R11       9
    C14(15)   R14       4
    C14(15)   R15       3
    C14(15)   R16       9
    C14(15)   R20       11
    C14(15)   R21       17
    C14(15)   R22       12
    C14(15)   R23       4
    C15(17)   OBJ       5
    C15(17)   R0        -8
    C15(17)   R1        -3
    C15(17)   R2        -3
    C15(17)   R3        12
    C15(17)   R4        11
    C15(17)   R10       14
    C15(17)   R11       19
    C15(17)   R15       1
    C15(17)   R17       1
    C15(17)   R18       19
    C15(17)   R19       4
    C15(17)   R20       1
    C15(17)   R21       4
    C15(17)   R22       7
    C15(17)   R23       11
    C15(17)   R24       3
    C15(17)   R26       6
    C16(19)   OBJ       6
    C16(19)   R0        -8
    C16(19)   R1        -7
    C16(19)   R2        9
    C16(19)   R3        5
    C16(19)   R4        1
    C16(19)   R5        13
    C16(19)   R6        2
    C16(19)   R7        5
    C16(19)   R9        3
    C16(19)   R12       4
    C16(19)   R13       12
    C16(19)   R15       19
    C16(19)   R18       -1
    C16(19)   R21       9
    C16(19)   R22       -1
    C16(19)   R23       18
    C16(19)   R24       3
    C16(19)   R25       8
    C16(19)   R26       19
    C17(15)   OBJ       3
    C17(15)   R0        5
    C17(15)   R1        -2
    C17(15)   R2        -1
    C17(15)   R4        7
    C17(15)   R5        9
    C17(15)   R10       2
    C17(15)   R13       13
    C17(15)   R15       16
    C17(15)   R17       13
    C17(15)   R18       5
    C17(15)   R19       8
    C17(15)   R21       10
    C17(15)   R23       17
    C17(15)   R24       9
    C17(15)   R26       6
    C18(16)   OBJ       -4
    C18(16)   R0        -6
    C18(16)   R1        1
    C18(16)   R2        6
    C18(16)   R4        19
    C18(16)   R5        6
    C18(16)   R7        11
    C18(16)   R8        17
    C18(16)   R9        17
    C18(16)   R10       15
    C18(16)   R13       9
    C18(16)   R14       9
    C18(16)   R15       9
    C18(16)   R16       14
    C18(16)   R22       5
    C18(16)   R24       10
    C18(16)   R26       10
    C19(15)   OBJ       -6
    C19(15)   R0        9
    C19(15)   R1        7
    C19(15)   R2        -5
    C19(15)   R3        6
    C19(15)   R4        13
    C19(15)   R5        11
    C19(15)   R7        14
    C19(15)   R9        4
    C19(15)   R12       7
    C19(15)   R14       5
    C19(15)   R21       2
    C19(15)   R22       9
    C19(15)   R24       10
    C19(15)   R25       7
    C19(15)   R26       6
    C20(21)   OBJ       4
    C20(21)   R0        4
    C20(21)   R1        -7
    C20(21)   R5        19
    C20(21)   R6        12
    C20(21)   R7        16
    C20(21)   R8        6
    C20(21)   R9        19
    C20(21)   R10       13
    C20(21)   R11       16
    C20(21)   R12       -1
    C20(21)   R13       3
    C20(21)   R14       11
    C20(21)   R15       11
    C20(21)   R17       8
    C20(21)   R19       5
    C20(21)   R20       3
    C20(21)   R21       13
    C20(21)   R22       2
    C20(21)   R23       10
    C20(21)   R24       14
    C20(21)   R26       17
    C21(15)   R0        2
    C21(15)   R1        -3
    C21(15)   R2        9
    C21(15)   R4        2
    C21(15)   R6        9
    C21(15)   R7        4
    C21(15)   R9        9
    C21(15)   R13       -1
    C21(15)   R14       14
    C21(15)   R15       2
    C21(15)   R19       11
    C21(15)   R21       11
    C21(15)   R22       13
    C21(15)   R23       2
    C21(15)   R25       13
    C22(15)   OBJ       -6
    C22(15)   R0        -2
    C22(15)   R1        6
    C22(15)   R2        9
    C22(15)   R4        1
    C22(15)   R5        10
    C22(15)   R8        7
    C22(15)   R9        1
    C22(15)   R13       16
    C22(15)   R16       8
    C22(15)   R19       9
    C22(15)   R20       17
    C22(15)   R22       14
    C22(15)   R23       13
    C22(15)   R24       4
    C22(15)   R26       19
    C23(17)   OBJ       9
    C23(17)   R0        5
    C23(17)   R1        -8
    C23(17)   R2        9
    C23(17)   R3        19
    C23(17)   R6        10
    C23(17)   R8        4
    C23(17)   R9        3
    C23(17)   R13       19
    C23(17)   R14       2
    C23(17)   R16       11
    C23(17)   R18       15
    C23(17)   R19       10
    C23(17)   R20       -1
    C23(17)   R21       1
    C23(17)   R22       11
    C23(17)   R24       7
    C23(17)   R25       -1
    C24(10)   OBJ       7
    C24(10)   R0        -8
    C24(10)   R1        -3
    C24(10)   R4        8
    C24(10)   R5        16
    C24(10)   R6        12
    C24(10)   R7        5
    C24(10)   R12       16
    C24(10)   R15       18
    C24(10)   R16       9
    C24(10)   R17       14
    C25(1)    R3        1
    C26(1)    R4        1
    C27(1)    R5        1
    C28(1)    R6        1
    C29(1)    R7        1
    C30(1)    R8        1
    C31(1)    R9        1
    C32(1)    R10       1
    C33(1)    R11       1
    C34(1)    R12       1
    C35(1)    R13       1
    C36(1)    R14       1
    C37(1)    R15       1
    C38(1)    R16       1
    C39(1)    R17       1
    C40(1)    R18       1
    C41(1)    R19       1
    C42(1)    R20       1
    C43(1)    R21       1
    C44(1)    R22       1
    C45(1)    R23       1
    C46(1)    R24       1
    C47(1)    R25       1
    C48(1)    R26       1
    C49(1)    R27       1
RHS
    RHS1      R0        -2.1172826771914711e+02
    RHS1      R1        2.0731780040462974e+02
    RHS1      R2        7.4050373121952816e+02
    RHS1      R3        60
    RHS1      R4        60
    RHS1      R5        80
    RHS1      R6        92
    RHS1      R7        72
    RHS1      R8        55
    RHS1      R9        94
    RHS1      R10       56
    RHS1      R11       53
    RHS1      R12       51
    RHS1      R13       98
    RHS1      R14       67
    RHS1      R15       71
    RHS1      R16       89
    RHS1      R17       82
    RHS1      R18       80
    RHS1      R19       51
    RHS1      R20       61
    RHS1      R21       52
    RHS1      R22       85
    RHS1      R23       91
    RHS1      R24       53
    RHS1      R25       85
    RHS1      R26       73
    RHS1      R27       4
BOUNDS
 UP BND1      I0(9)     2
 UP BND1      I1(10)    2
 UP BND1      I2(11)    2
 UP BND1      I3(8)     2
 UP BND1      I4(11)    2
 UP BND1      I5(12)    2
 UP BND1      I6(8)     2
 UP BND1      I7(13)    2
 UP BND1      I8(7)     2
 UP BND1      I9(10)    2
 UP BND1      I10(10)   2
 UP BND1      I11(9)    2
ENDATA
